benchmark/results/graph__10-1000-0.10-04_19/graph__10-1000-0.10-04_19_QuintonOs_Benders_aux.lp
\ This file has been generated by DOcplex
\ ENCODING=ISO-8859-1
\Problem name: Quinton Bounded Benders_auxiliary_sub

Minimize
 obj: 0.001021317882 pi_nr_a0 + 0.001592562537 pi_nr_a1
      + 0.001116071429 pi_nr_a2 + 0.001144605412 pi_nr_a3
      + 0.000989032769 pi_nr_a4 + 0.001858673856 pi_nr_a5
      + 0.001136652651 pi_nr_a6 + 0.001207201855 pi_nr_a7
      + 0.001082160714 pi_nr_a8 + 0.000868685362 pi_nr_a9 + pi_p_a2_a3
      + pi_p_a4_a2 + pi_p_a5_a2 + pi_p_a6_a7 + pi_p_a3_a8 + pi_p_a0_a9
      + pi_p_a6_a3 + pi_p_a5_a8 + pi_p_a4_a9 + pi_p_a4_a1 + pi_p_a5_a3
      + 2597.681998290949 pi_d_a0_a1_proc_2
      + 1910.242857369605 pi_d_a0_a1_proc_3 + 698.040163515345 pi_d_a0_a1_proc_0
      + 2582.871159979039 pi_d_a1_a0_proc_2
      + 1895.432019057695 pi_d_a1_a0_proc_3 + 683.229325203434 pi_d_a1_a0_proc_0
      + 2583.975532864100 pi_d_a0_a2_proc_2
      + 1936.475687296718 pi_d_a0_a2_proc_3 + 643.724603723462 pi_d_a0_a2_proc_0
      + 2597.024158079936 pi_d_a2_a0_proc_2
      + 1949.524312512553 pi_d_a2_a0_proc_3 + 656.773228939298 pi_d_a2_a0_proc_0
      + 1559.676585733435 pi_d_a0_a3_proc_3
      + 1958.748295845789 pi_d_a0_a3_proc_0
      + 1703.573418984940 pi_d_a0_a3_proc_1
      + 1532.677821708518 pi_d_a3_a0_proc_3
      + 1931.749531820872 pi_d_a3_a0_proc_0
      + 1676.574654960022 pi_d_a3_a0_proc_1
      + 1942.999847024446 pi_d_a0_a4_proc_2
      + 1297.748917786055 pi_d_a0_a4_proc_0
      + 2588.251239843201 pi_d_a0_a4_proc_1
      + 1942.999843921978 pi_d_a4_a0_proc_2
      + 1297.748914683587 pi_d_a4_a0_proc_0
      + 2588.251236740733 pi_d_a4_a0_proc_1
      + 2576.924067009425 pi_d_a0_a5_proc_2
      + 1279.871855689237 pi_d_a0_a5_proc_1
      + 2603.879228075942 pi_d_a5_a0_proc_2
      + 1306.827016755754 pi_d_a5_a0_proc_1
      + 1956.289082495732 pi_d_a0_a6_proc_2
      + 1956.289237022520 pi_d_a0_a6_proc_3
      + 1956.289391549308 pi_d_a0_a6_proc_0
      + 1956.289237022520 pi_d_a0_a6_proc_1
      + 1929.710608450692 pi_d_a6_a0_proc_2
      + 1929.710762977480 pi_d_a6_a0_proc_3
      + 1929.710917504268 pi_d_a6_a0_proc_0
      + 1929.710762977480 pi_d_a6_a0_proc_1
      + 1942.999845498395 pi_d_a0_a7_proc_2
      + 1295.500000025183 pi_d_a0_a7_proc_3
      + 1945.248916260004 pi_d_a0_a7_proc_0
      + 2588.251238317150 pi_d_a0_a7_proc_1
      + 1942.999845448029 pi_d_a7_a0_proc_2
      + 1295.499999974817 pi_d_a7_a0_proc_3
      + 1945.248916209638 pi_d_a7_a0_proc_0
      + 2588.251238266783 pi_d_a7_a0_proc_1
      + 2590.400824319351 pi_d_a0_a8_proc_2
      + 1937.502492494419 pi_d_a0_a8_proc_0
      + 1300.799619724645 pi_d_a0_a8_proc_1
      + 2590.598866627074 pi_d_a8_a0_proc_2
      + 1937.700534802142 pi_d_a8_a0_proc_0
      + 1300.997662032368 pi_d_a8_a0_proc_1
      + 1949.999844070406 pi_d_a0_a9_proc_2
      + 1302.499998446436 pi_d_a0_a9_proc_3
      + 1952.248914604774 pi_d_a0_a9_proc_0
      + 2595.251236664128 pi_d_a0_a9_proc_1
      + 1935.999847177534 pi_d_a9_a0_proc_2
      + 1288.500001553564 pi_d_a9_a0_proc_3
      + 1938.248917711902 pi_d_a9_a0_proc_0
      + 2581.251239771256 pi_d_a9_a0_proc_1
      + 2591.182151215634 pi_d_a1_a2_proc_2
      + 2551.242855673332 pi_d_a1_a2_proc_3 + 41.791245776174 pi_d_a1_a2_proc_0
      + 2589.371316105541 pi_d_a2_a1_proc_2
      + 2549.432020563238 pi_d_a2_a1_proc_3 + 39.980410666081 pi_d_a2_a1_proc_0
      + 2140.523086865754 pi_d_a1_a3_proc_3
      + 1322.894270654205 pi_d_a1_a3_proc_0
      + 2166.506197003499 pi_d_a3_a1_proc_3
      + 1348.877380791950 pi_d_a3_a1_proc_0
      + 1949.274319971639 pi_d_a1_a4_proc_2 + 694.883414434425 pi_d_a1_a4_proc_0
      + 1936.279147351925 pi_d_a4_a1_proc_2 + 681.888241814711 pi_d_a4_a1_proc_0
      + 2603.678475630470 pi_d_a1_a5_proc_2
      + 2576.678595832036 pi_d_a5_a1_proc_2
      + 1929.303100875553 pi_d_a1_a6_proc_2
      + 2536.863805427421 pi_d_a1_a6_proc_3
      + 1320.163433630306 pi_d_a1_a6_proc_0
      + 1956.250366448011 pi_d_a6_a1_proc_2
      + 2563.811070999879 pi_d_a6_a1_proc_3
      + 1347.110699202764 pi_d_a6_a1_proc_0
      + 1955.873557365798 pi_d_a1_a7_proc_2
      + 1915.934261917667 pi_d_a1_a7_proc_3
      + 1348.982651828585 pi_d_a1_a7_proc_0
      + 1929.679909957765 pi_d_a7_a1_proc_2
      + 1889.740614509634 pi_d_a7_a1_proc_3
      + 1322.789004420552 pi_d_a7_a1_proc_0
      + 2576.777162904332 pi_d_a1_a8_proc_2
      + 1314.738854780579 pi_d_a1_a8_proc_0
      + 2603.776304419231 pi_d_a8_a1_proc_2
      + 1341.737996295477 pi_d_a8_a1_proc_0
      + 1942.568266671654 pi_d_a1_a9_proc_2
      + 1902.628971072764 pi_d_a1_a9_proc_3
      + 1335.677360907199 pi_d_a1_a9_proc_0
      + 1942.985200953425 pi_d_a9_a1_proc_2
      + 1903.045905354536 pi_d_a9_a1_proc_3
      + 1336.094295188971 pi_d_a9_a1_proc_0
      + 2207.177203601517 pi_d_a2_a3_proc_3
      + 1308.999997670973 pi_d_a2_a3_proc_0
      + 2180.177203649707 pi_d_a3_a2_proc_3
      + 1281.999997719163 pi_d_a3_a2_proc_0
      + 1949.499999973647 pi_d_a2_a4_proc_2 + 654.500000071400 pi_d_a2_a4_proc_0
      + 1936.500000023965 pi_d_a4_a2_proc_2 + 641.500000121717 pi_d_a4_a2_proc_0
      + 2603.901802068265 pi_d_a2_a5_proc_2
      + 2576.901802068290 pi_d_a5_a2_proc_2
      + 1956.475689062464 pi_d_a2_a6_proc_2
      + 2603.975688968294 pi_d_a2_a6_proc_3
      + 1306.726927452184 pi_d_a2_a6_proc_0
      + 1929.524310935148 pi_d_a6_a2_proc_2
      + 2577.024310840977 pi_d_a6_a2_proc_3
      + 1279.775549324867 pi_d_a6_a2_proc_0
      + 1956.499999972703 pi_d_a2_a7_proc_2
      + 1956.499999878532 pi_d_a2_a7_proc_3
      + 1309.000000070456 pi_d_a2_a7_proc_0
      + 1929.500000024909 pi_d_a7_a2_proc_2
      + 1929.499999930738 pi_d_a7_a2_proc_3
      + 1282.000000122662 pi_d_a7_a2_proc_0
      + 2603.919170589988 pi_d_a2_a8_proc_2
      + 1301.271768101201 pi_d_a2_a8_proc_0
      + 2577.080829407623 pi_d_a8_a2_proc_2
      + 1274.433426918836 pi_d_a8_a2_proc_0
      + 1943.000000176485 pi_d_a2_a9_proc_2
      + 1942.999999931556 pi_d_a2_a9_proc_3
      + 1295.500000046997 pi_d_a2_a9_proc_0
      + 1943.000000122643 pi_d_a9_a2_proc_2
      + 1942.999999877714 pi_d_a9_a2_proc_3
      + 1295.499999993155 pi_d_a9_a2_proc_0
      + 1929.499997598509 pi_d_a3_a4_proc_0
      + 1678.822798680514 pi_d_a3_a4_proc_1
      + 1956.499997598509 pi_d_a4_a3_proc_0
      + 1705.822798680514 pi_d_a4_a3_proc_1 + 401.211827461644 pi_d_a3_a5_proc_1
      + 393.630165760441 pi_d_a5_a3_proc_1 + 2204.467179898596 pi_d_a3_a6_proc_3
      + 2599.041212068095 pi_d_a3_a6_proc_0
      + 1057.861536566167 pi_d_a3_a6_proc_1
      + 2182.887227543357 pi_d_a6_a3_proc_3
      + 2577.461259712857 pi_d_a6_a3_proc_0
      + 1036.281584210928 pi_d_a6_a3_proc_1
      + 1536.935685215243 pi_d_a3_a7_proc_3
      + 2581.258479092775 pi_d_a3_a7_proc_0
      + 1683.081280174780 pi_d_a3_a7_proc_1
      + 1555.418722226711 pi_d_a7_a3_proc_3
      + 2599.741516104243 pi_d_a7_a3_proc_0
      + 1701.564317186248 pi_d_a7_a3_proc_1
      + 2586.850031387318 pi_d_a3_a8_proc_0 + 408.967637642404 pi_d_a3_a8_proc_1
      + 2578.855158636619 pi_d_a8_a3_proc_0 + 400.972764891705 pi_d_a8_a3_proc_1
      + 1546.177171980036 pi_d_a3_a9_proc_3
      + 2590.499965781086 pi_d_a3_a9_proc_0
      + 1692.322766865299 pi_d_a3_a9_proc_1
      + 1546.177235461917 pi_d_a9_a3_proc_3
      + 2590.500029262967 pi_d_a9_a3_proc_0
      + 1692.322830347180 pi_d_a9_a3_proc_1
      + 1942.903209654835 pi_d_a4_a5_proc_2
      + 1295.599605515892 pi_d_a4_a5_proc_1
      + 1942.900394484108 pi_d_a5_a4_proc_2
      + 1295.596790345165 pi_d_a5_a4_proc_1
      + 1295.867187499988 pi_d_a4_a6_proc_2
      + 1941.118425791954 pi_d_a4_a6_proc_0
      + 1945.615949208021 pi_d_a4_a6_proc_1
      + 1295.132812500012 pi_d_a6_a4_proc_2
      + 1940.384050791979 pi_d_a6_a4_proc_0
      + 1944.881574208046 pi_d_a6_a4_proc_1
      + 1308.872772208804 pi_d_a4_a7_proc_2
      + 1956.372772208804 pi_d_a4_a7_proc_0
      + 2603.872772208804 pi_d_a4_a7_proc_1
      + 1282.127227791196 pi_d_a7_a4_proc_2
      + 1929.627227791196 pi_d_a7_a4_proc_0
      + 2577.127227791196 pi_d_a7_a4_proc_1
      + 1956.479264823904 pi_d_a4_a8_proc_2
      + 1948.831862237363 pi_d_a4_a8_proc_0
      + 1316.626667410444 pi_d_a4_a8_proc_1
      + 1929.520735176096 pi_d_a8_a4_proc_2
      + 1921.873332589556 pi_d_a8_a4_proc_0
      + 1289.668137762637 pi_d_a8_a4_proc_1
      + 1289.000000151823 pi_d_a4_a9_proc_2
      + 1936.499999924582 pi_d_a4_a9_proc_0
      + 2583.999999926790 pi_d_a4_a9_proc_1
      + 1302.000000149693 pi_d_a9_a4_proc_2
      + 1949.499999922452 pi_d_a9_a4_proc_0
      + 2596.999999924660 pi_d_a9_a4_proc_1
      + 1949.925207306944 pi_d_a5_a6_proc_2 + 657.370364876034 pi_d_a5_a6_proc_1
      + 1935.878396831999 pi_d_a6_a5_proc_2 + 643.323554401089 pi_d_a6_a5_proc_1
      + 1929.565850264357 pi_d_a5_a7_proc_2
      + 1282.262246125414 pi_d_a5_a7_proc_1
      + 1956.237753874586 pi_d_a7_a5_proc_2
      + 1308.934149735643 pi_d_a7_a5_proc_1
      + 2590.820942020261 pi_d_a5_a8_proc_2 + 8.664740467858 pi_d_a5_a8_proc_1
      + 2589.982662118683 pi_d_a8_a5_proc_2 + 7.826460566280 pi_d_a8_a5_proc_1
      + 1956.353432010797 pi_d_a5_a9_proc_2
      + 1309.049827646822 pi_d_a5_a9_proc_1
      + 1929.450172429661 pi_d_a9_a5_proc_2
      + 1282.146568065686 pi_d_a9_a5_proc_1
      + 1302.500000000000 pi_d_a6_a7_proc_2 + 1950 pi_d_a6_a7_proc_3
      + 2595.251238291967 pi_d_a6_a7_proc_0
      + 1952.248761708033 pi_d_a6_a7_proc_1
      + 1288.500000000000 pi_d_a7_a6_proc_2 + 1936 pi_d_a7_a6_proc_3
      + 2581.251238291967 pi_d_a7_a6_proc_0
      + 1938.248761708033 pi_d_a7_a6_proc_1
      + 1936.598945376248 pi_d_a6_a8_proc_2
      + 2574.202781081674 pi_d_a6_a8_proc_0 + 651.495109670822 pi_d_a6_a8_proc_1
      + 1949.401054623752 pi_d_a8_a6_proc_2
      + 2587.004890329178 pi_d_a8_a6_proc_0 + 664.297218918325 pi_d_a8_a6_proc_1
      + 1282.422693189746 pi_d_a6_a9_proc_2
      + 1929.922693038988 pi_d_a6_a9_proc_3
      + 2575.173931254471 pi_d_a6_a9_proc_0
      + 1932.171454672746 pi_d_a6_a9_proc_1
      + 1308.577307111770 pi_d_a9_a6_proc_2
      + 1956.077306961012 pi_d_a9_a6_proc_3
      + 2601.328545176496 pi_d_a9_a6_proc_0
      + 1958.326068594771 pi_d_a9_a6_proc_1
      + 1956.499999974854 pi_d_a7_a8_proc_2
      + 2596.352597388314 pi_d_a7_a8_proc_0
      + 1316.647402561395 pi_d_a7_a8_proc_1
      + 1929.500000025146 pi_d_a8_a7_proc_2
      + 2569.352597438605 pi_d_a8_a7_proc_0
      + 1289.647402611686 pi_d_a8_a7_proc_1
      + 1295.453854339629 pi_d_a7_a9_proc_2
      + 1295.453854188871 pi_d_a7_a9_proc_3
      + 2590.453854112388 pi_d_a7_a9_proc_0
      + 2590.453854114597 pi_d_a7_a9_proc_1
      + 1295.546145961886 pi_d_a9_a7_proc_2
      + 1295.546145811129 pi_d_a9_a7_proc_3
      + 2590.546145734646 pi_d_a9_a7_proc_0
      + 2590.546145736854 pi_d_a9_a7_proc_1
      + 1942.789886261560 pi_d_a8_a9_proc_2
      + 2582.642483447778 pi_d_a8_a9_proc_0
      + 1302.937288623067 pi_d_a8_a9_proc_1
      + 1943.210114039956 pi_d_a9_a8_proc_2
      + 2583.062711226175 pi_d_a9_a8_proc_0
      + 1303.357516401464 pi_d_a9_a8_proc_1 + 0.498263385147 pi_y2_a0_proc_0
      + 0.001736495527 pi_y2_a0_proc_1 + 0.000000119326 pi_y2_a0_proc_2
      + 0.500000000000 pi_y2_a0_proc_3 + 0.968814032336 pi_y2_a1_proc_0
      + 0.000172406439 pi_y2_a1_proc_2 + 0.031013561225 pi_y2_a1_proc_3
      + 0.999999999925 pi_y2_a2_proc_0 + 0.000000000001 pi_y2_a2_proc_2
      + 0.000000000074 pi_y2_a2_proc_3 + 0.000000001854 pi_y2_a3_proc_0
      + 0.693573128432 pi_y2_a3_proc_1 + 0.306426869714 pi_y2_a3_proc_3
      + 0.500000000000 pi_y2_a4_proc_0 + 0.000000000000 pi_y2_a4_proc_1
      + 0.500000000000 pi_y2_a4_proc_2 + 0.999924171482 pi_y2_a5_proc_1
      + 0.000075828518 pi_y2_a5_proc_2 + 0.001736495527 pi_y2_a6_proc_0
      + 0.498263504473 pi_y2_a6_proc_1 + 0.500000000000 pi_y2_a6_proc_2
      + 0.000000000000 pi_y2_a6_proc_3 + 0.000000000000 pi_y2_a7_proc_0
      + 0.000000000000 pi_y2_a7_proc_1 + 0.500000000000 pi_y2_a7_proc_2
      + 0.500000000000 pi_y2_a7_proc_3 + 0.005905330183 pi_y2_a8_proc_0
      + 0.994094669817 pi_y2_a8_proc_1 + 0.000000000000 pi_y2_a8_proc_2
      + 0.000000000059 pi_y2_a9_proc_0 + 0.000000000057 pi_y2_a9_proc_1
      + 0.499999999884 pi_y2_a9_proc_2 + 0.500000000000 pi_y2_a9_proc_3
Subject To
 c1: 0.000977517107 pi_nr_a0 + 0.001602564103 pi_nr_a1 + 0.001116071429 pi_nr_a2
     + 0.001116071429 pi_nr_a3 + 0.000946073794 pi_nr_a4
     + 0.001858736059 pi_nr_a5 + 0.001216545012 pi_nr_a6
     + 0.001173708920 pi_nr_a7 + 0.001083423619 pi_nr_a8
     + 0.000903342367 pi_nr_a9 + pi_p_a2_a3 + pi_p_a4_a2 + pi_p_a5_a2
     + pi_p_a6_a7 + pi_p_a3_a8 + pi_p_a0_a9 + pi_p_a6_a3 + pi_p_a5_a8
     + pi_p_a4_a9 + pi_p_a4_a1 + pi_p_a5_a3 + 2604 pi_d_a0_a1_proc_2
     + 1309 pi_d_a0_a1_proc_3 + 1309 pi_d_a0_a1_proc_0 + 2577 pi_d_a1_a0_proc_2
     + 1282 pi_d_a1_a0_proc_3 + 1282 pi_d_a1_a0_proc_0 + 2577 pi_d_a0_a2_proc_2
     + 1282 pi_d_a0_a2_proc_3 + 1282 pi_d_a0_a2_proc_0 + 2604 pi_d_a2_a0_proc_2
     + 1309 pi_d_a2_a0_proc_3 + 1309 pi_d_a2_a0_proc_0 + 1309 pi_d_a0_a3_proc_3
     + 2604 pi_d_a0_a3_proc_0 + 1309 pi_d_a0_a3_proc_1 + 1282 pi_d_a3_a0_proc_3
     + 2577 pi_d_a3_a0_proc_0 + 1282 pi_d_a3_a0_proc_1 + 2604 pi_d_a0_a4_proc_2
     + 1309 pi_d_a0_a4_proc_0 + 2604 pi_d_a0_a4_proc_1 + 2577 pi_d_a4_a0_proc_2
     + 1282 pi_d_a4_a0_proc_0 + 2577 pi_d_a4_a0_proc_1 + 2577 pi_d_a0_a5_proc_2
     + 1282 pi_d_a0_a5_proc_1 + 2604 pi_d_a5_a0_proc_2 + 1309 pi_d_a5_a0_proc_1
     + 1309 pi_d_a0_a6_proc_2 + 1309 pi_d_a0_a6_proc_3 + 2604 pi_d_a0_a6_proc_0
     + 2604 pi_d_a0_a6_proc_1 + 1282 pi_d_a6_a0_proc_2 + 1282 pi_d_a6_a0_proc_3
     + 2577 pi_d_a6_a0_proc_0 + 2577 pi_d_a6_a0_proc_1 + 1309 pi_d_a0_a7_proc_2
     + 1309 pi_d_a0_a7_proc_3 + 2604 pi_d_a0_a7_proc_0 + 2604 pi_d_a0_a7_proc_1
     + 1282 pi_d_a7_a0_proc_2 + 1282 pi_d_a7_a0_proc_3 + 2577 pi_d_a7_a0_proc_0
     + 2577 pi_d_a7_a0_proc_1 + 2577 pi_d_a0_a8_proc_2 + 2577 pi_d_a0_a8_proc_0
     + 1282 pi_d_a0_a8_proc_1 + 2604 pi_d_a8_a0_proc_2 + 2604 pi_d_a8_a0_proc_0
     + 1309 pi_d_a8_a0_proc_1 + 2591 pi_d_a0_a9_proc_2 + pi_d_a0_a9_proc_3
     + 2591 pi_d_a0_a9_proc_0 + 2591 pi_d_a0_a9_proc_1 + 2590 pi_d_a9_a0_proc_2
     + 2590 pi_d_a9_a0_proc_0 + 2590 pi_d_a9_a0_proc_1 + 2591 pi_d_a1_a2_proc_2
     + 2591 pi_d_a1_a2_proc_3 + pi_d_a1_a2_proc_0 + 2590 pi_d_a2_a1_proc_2
     + 2590 pi_d_a2_a1_proc_3 + 2577 pi_d_a1_a3_proc_3 + 1282 pi_d_a1_a3_proc_0
     + 2604 pi_d_a3_a1_proc_3 + 1309 pi_d_a3_a1_proc_0 + 2590 pi_d_a1_a4_proc_2
     + 2591 pi_d_a4_a1_proc_2 + pi_d_a4_a1_proc_0 + 2604 pi_d_a1_a5_proc_2
     + 2577 pi_d_a5_a1_proc_2 + 1282 pi_d_a1_a6_proc_2 + 2577 pi_d_a1_a6_proc_3
     + 1282 pi_d_a1_a6_proc_0 + 1309 pi_d_a6_a1_proc_2 + 2604 pi_d_a6_a1_proc_3
     + 1309 pi_d_a6_a1_proc_0 + 1309 pi_d_a1_a7_proc_2 + 2604 pi_d_a1_a7_proc_3
     + 1309 pi_d_a1_a7_proc_0 + 1282 pi_d_a7_a1_proc_2 + 2577 pi_d_a7_a1_proc_3
     + 1282 pi_d_a7_a1_proc_0 + 2577 pi_d_a1_a8_proc_2 + 1282 pi_d_a1_a8_proc_0
     + 2604 pi_d_a8_a1_proc_2 + 1309 pi_d_a8_a1_proc_0 + 2577 pi_d_a1_a9_proc_2
     + 1282 pi_d_a1_a9_proc_3 + 1282 pi_d_a1_a9_proc_0 + 2604 pi_d_a9_a1_proc_2
     + 1309 pi_d_a9_a1_proc_3 + 1309 pi_d_a9_a1_proc_0 + 2604 pi_d_a2_a3_proc_3
     + 1309 pi_d_a2_a3_proc_0 + 2577 pi_d_a3_a2_proc_3 + 1282 pi_d_a3_a2_proc_0
     + 2590 pi_d_a2_a4_proc_2 + 2591 pi_d_a4_a2_proc_2 + pi_d_a4_a2_proc_0
     + 2604 pi_d_a2_a5_proc_2 + 2577 pi_d_a5_a2_proc_2 + 1309 pi_d_a2_a6_proc_2
     + 2604 pi_d_a2_a6_proc_3 + 1309 pi_d_a2_a6_proc_0 + 1282 pi_d_a6_a2_proc_2
     + 2577 pi_d_a6_a2_proc_3 + 1282 pi_d_a6_a2_proc_0 + 1309 pi_d_a2_a7_proc_2
     + 2604 pi_d_a2_a7_proc_3 + 1309 pi_d_a2_a7_proc_0 + 1282 pi_d_a7_a2_proc_2
     + 2577 pi_d_a7_a2_proc_3 + 1282 pi_d_a7_a2_proc_0 + 2604 pi_d_a2_a8_proc_2
     + 1309 pi_d_a2_a8_proc_0 + 2577 pi_d_a8_a2_proc_2 + 1282 pi_d_a8_a2_proc_0
     + 2604 pi_d_a2_a9_proc_2 + 1309 pi_d_a2_a9_proc_3 + 1309 pi_d_a2_a9_proc_0
     + 2577 pi_d_a9_a2_proc_2 + 1282 pi_d_a9_a2_proc_3 + 1282 pi_d_a9_a2_proc_0
     + 1282 pi_d_a3_a4_proc_0 + 1282 pi_d_a3_a4_proc_1 + 1309 pi_d_a4_a3_proc_0
     + 1309 pi_d_a4_a3_proc_1 + pi_d_a5_a3_proc_1 + 2604 pi_d_a3_a6_proc_3
     + 2604 pi_d_a3_a6_proc_0 + 1309 pi_d_a3_a6_proc_1 + 2577 pi_d_a6_a3_proc_3
     + 2577 pi_d_a6_a3_proc_0 + 1282 pi_d_a6_a3_proc_1 + 2577 pi_d_a3_a7_proc_3
     + 2577 pi_d_a3_a7_proc_0 + 1282 pi_d_a3_a7_proc_1 + 2604 pi_d_a7_a3_proc_3
     + 2604 pi_d_a7_a3_proc_0 + 1309 pi_d_a7_a3_proc_1 + 2590 pi_d_a3_a8_proc_0
     + 2591 pi_d_a8_a3_proc_0 + pi_d_a8_a3_proc_1 + 1282 pi_d_a3_a9_proc_3
     + 2577 pi_d_a3_a9_proc_0 + 1282 pi_d_a3_a9_proc_1 + 1309 pi_d_a9_a3_proc_3
     + 2604 pi_d_a9_a3_proc_0 + 1309 pi_d_a9_a3_proc_1 + 2604 pi_d_a4_a5_proc_2
     + 1309 pi_d_a4_a5_proc_1 + 2577 pi_d_a5_a4_proc_2 + 1282 pi_d_a5_a4_proc_1
     + 1309 pi_d_a4_a6_proc_2 + 1309 pi_d_a4_a6_proc_0 + 2604 pi_d_a4_a6_proc_1
     + 1282 pi_d_a6_a4_proc_2 + 1282 pi_d_a6_a4_proc_0 + 2577 pi_d_a6_a4_proc_1
     + 1309 pi_d_a4_a7_proc_2 + 1309 pi_d_a4_a7_proc_0 + 2604 pi_d_a4_a7_proc_1
     + 1282 pi_d_a7_a4_proc_2 + 1282 pi_d_a7_a4_proc_0 + 2577 pi_d_a7_a4_proc_1
     + 2604 pi_d_a4_a8_proc_2 + 1309 pi_d_a4_a8_proc_0 + 1309 pi_d_a4_a8_proc_1
     + 2577 pi_d_a8_a4_proc_2 + 1282 pi_d_a8_a4_proc_0 + 1282 pi_d_a8_a4_proc_1
     + 2577 pi_d_a4_a9_proc_2 + 1282 pi_d_a4_a9_proc_0 + 2577 pi_d_a4_a9_proc_1
     + 2604 pi_d_a9_a4_proc_2 + 1309 pi_d_a9_a4_proc_0 + 2604 pi_d_a9_a4_proc_1
     + 1309 pi_d_a5_a6_proc_2 + 1309 pi_d_a5_a6_proc_1 + 1282 pi_d_a6_a5_proc_2
     + 1282 pi_d_a6_a5_proc_1 + 1282 pi_d_a5_a7_proc_2 + 1282 pi_d_a5_a7_proc_1
     + 1309 pi_d_a7_a5_proc_2 + 1309 pi_d_a7_a5_proc_1 + 2591 pi_d_a5_a8_proc_2
     + pi_d_a5_a8_proc_1 + 2590 pi_d_a8_a5_proc_2 + 2604 pi_d_a5_a9_proc_2
     + 1309 pi_d_a5_a9_proc_1 + 2577 pi_d_a9_a5_proc_2 + 1282 pi_d_a9_a5_proc_1
     + pi_d_a6_a7_proc_2 + 2591 pi_d_a6_a7_proc_3 + 2591 pi_d_a6_a7_proc_0
     + 2591 pi_d_a6_a7_proc_1 + 2590 pi_d_a7_a6_proc_3 + 2590 pi_d_a7_a6_proc_0
     + 2590 pi_d_a7_a6_proc_1 + 1282 pi_d_a6_a8_proc_2 + 2577 pi_d_a6_a8_proc_0
     + 1282 pi_d_a6_a8_proc_1 + 1309 pi_d_a8_a6_proc_2 + 2604 pi_d_a8_a6_proc_0
     + 1309 pi_d_a8_a6_proc_1 + 1282 pi_d_a6_a9_proc_2 + 1282 pi_d_a6_a9_proc_3
     + 2577 pi_d_a6_a9_proc_0 + 2577 pi_d_a6_a9_proc_1 + 1309 pi_d_a9_a6_proc_2
     + 1309 pi_d_a9_a6_proc_3 + 2604 pi_d_a9_a6_proc_0 + 2604 pi_d_a9_a6_proc_1
     + 1309 pi_d_a7_a8_proc_2 + 2604 pi_d_a7_a8_proc_0 + 1309 pi_d_a7_a8_proc_1
     + 1282 pi_d_a8_a7_proc_2 + 2577 pi_d_a8_a7_proc_0 + 1282 pi_d_a8_a7_proc_1
     + 1282 pi_d_a7_a9_proc_2 + 1282 pi_d_a7_a9_proc_3 + 2577 pi_d_a7_a9_proc_0
     + 2577 pi_d_a7_a9_proc_1 + 1309 pi_d_a9_a7_proc_2 + 1309 pi_d_a9_a7_proc_3
     + 2604 pi_d_a9_a7_proc_0 + 2604 pi_d_a9_a7_proc_1 + 2577 pi_d_a8_a9_proc_2
     + 2577 pi_d_a8_a9_proc_0 + 1282 pi_d_a8_a9_proc_1 + 2604 pi_d_a9_a8_proc_2
     + 2604 pi_d_a9_a8_proc_0 + 1309 pi_d_a9_a8_proc_1 + pi_y2_a0_proc_3
     + pi_y2_a1_proc_0 + pi_y2_a2_proc_0 + pi_y2_a3_proc_1 + pi_y2_a4_proc_0
     + pi_y2_a5_proc_1 + pi_y2_a6_proc_2 + pi_y2_a7_proc_2 + pi_y2_a8_proc_1
     + pi_y2_a9_proc_3 = 0.000388048118
 c2: pi_nr_a0 + pi_nr_a1 + pi_nr_a2 + pi_nr_a3 + pi_nr_a4 + pi_nr_a5 + pi_nr_a6
     + pi_nr_a7 + pi_nr_a8 + pi_nr_a9 - pi_y1_a0 - pi_y1_a1 - pi_y1_a2
     - pi_y1_a3 - pi_y1_a4 - pi_y1_a5 - pi_y1_a6 - pi_y1_a7 - pi_y1_a8
     - pi_y1_a9 >= 1
 c3: - pi_p_a1_a0 + pi_p_a0_a9 + pi_d_a0_a1_proc_2 + pi_d_a0_a1_proc_3
     + pi_d_a0_a1_proc_0 - pi_d_a1_a0_proc_2 - pi_d_a1_a0_proc_3
     - pi_d_a1_a0_proc_0 + pi_d_a0_a2_proc_2 + pi_d_a0_a2_proc_3
     + pi_d_a0_a2_proc_0 - pi_d_a2_a0_proc_2 - pi_d_a2_a0_proc_3
     - pi_d_a2_a0_proc_0 + pi_d_a0_a3_proc_3 + pi_d_a0_a3_proc_0
     + pi_d_a0_a3_proc_1 - pi_d_a3_a0_proc_3 - pi_d_a3_a0_proc_0
     - pi_d_a3_a0_proc_1 + pi_d_a0_a4_proc_2 + pi_d_a0_a4_proc_0
     + pi_d_a0_a4_proc_1 - pi_d_a4_a0_proc_2 - pi_d_a4_a0_proc_0
     - pi_d_a4_a0_proc_1 + pi_d_a0_a5_proc_2 + pi_d_a0_a5_proc_1
     - pi_d_a5_a0_proc_2 - pi_d_a5_a0_proc_1 + pi_d_a0_a6_proc_2
     + pi_d_a0_a6_proc_3 + pi_d_a0_a6_proc_0 + pi_d_a0_a6_proc_1
     - pi_d_a6_a0_proc_2 - pi_d_a6_a0_proc_3 - pi_d_a6_a0_proc_0
     - pi_d_a6_a0_proc_1 + pi_d_a0_a7_proc_2 + pi_d_a0_a7_proc_3
     + pi_d_a0_a7_proc_0 + pi_d_a0_a7_proc_1 - pi_d_a7_a0_proc_2
     - pi_d_a7_a0_proc_3 - pi_d_a7_a0_proc_0 - pi_d_a7_a0_proc_1
     + pi_d_a0_a8_proc_2 + pi_d_a0_a8_proc_0 + pi_d_a0_a8_proc_1
     - pi_d_a8_a0_proc_2 - pi_d_a8_a0_proc_0 - pi_d_a8_a0_proc_1
     + pi_d_a0_a9_proc_2 + pi_d_a0_a9_proc_3 + pi_d_a0_a9_proc_0
     + pi_d_a0_a9_proc_1 - pi_d_a9_a0_proc_2 - pi_d_a9_a0_proc_3
     - pi_d_a9_a0_proc_0 - pi_d_a9_a0_proc_1 >= 0
 c4: 939 pi_p_a0_a9 + 939 pi_d_a0_a1_proc_0 + 939 pi_d_a0_a2_proc_0
     + 939 pi_d_a0_a3_proc_0 + 939 pi_d_a0_a4_proc_0 + 939 pi_d_a0_a6_proc_0
     + 939 pi_d_a0_a7_proc_0 + 939 pi_d_a0_a8_proc_0 + 939 pi_d_a0_a9_proc_0
     + pi_y1_a0 + pi_y2_a0_proc_0 >= 0
 c5: 901 pi_p_a0_a9 + 901 pi_d_a0_a3_proc_1 + 901 pi_d_a0_a4_proc_1
     + 901 pi_d_a0_a5_proc_1 + 901 pi_d_a0_a6_proc_1 + 901 pi_d_a0_a7_proc_1
     + 901 pi_d_a0_a8_proc_1 + 901 pi_d_a0_a9_proc_1 + pi_y1_a0
     + pi_y2_a0_proc_1 >= 0
 c6: 1219 pi_p_a0_a9 + 1219 pi_d_a0_a1_proc_2 + 1219 pi_d_a0_a2_proc_2
     + 1219 pi_d_a0_a4_proc_2 + 1219 pi_d_a0_a5_proc_2 + 1219 pi_d_a0_a6_proc_2
     + 1219 pi_d_a0_a7_proc_2 + 1219 pi_d_a0_a8_proc_2 + 1219 pi_d_a0_a9_proc_2
     + pi_y1_a0 + pi_y2_a0_proc_2 >= 0
 c7: 1023 pi_p_a0_a9 + 1023 pi_d_a0_a1_proc_3 + 1023 pi_d_a0_a2_proc_3
     + 1023 pi_d_a0_a3_proc_3 + 1023 pi_d_a0_a6_proc_3 + 1023 pi_d_a0_a7_proc_3
     + 1023 pi_d_a0_a9_proc_3 + pi_y1_a0 + pi_y2_a0_proc_3 >= 0
 c8: pi_p_a1_a0 - pi_p_a2_a1 - pi_p_a4_a1 + pi_p_a1_a4 - pi_d_a0_a1_proc_2
     - pi_d_a0_a1_proc_3 - pi_d_a0_a1_proc_0 + pi_d_a1_a0_proc_2
     + pi_d_a1_a0_proc_3 + pi_d_a1_a0_proc_0 + pi_d_a1_a2_proc_2
     + pi_d_a1_a2_proc_3 + pi_d_a1_a2_proc_0 - pi_d_a2_a1_proc_2
     - pi_d_a2_a1_proc_3 - pi_d_a2_a1_proc_0 + pi_d_a1_a3_proc_3
     + pi_d_a1_a3_proc_0 - pi_d_a3_a1_proc_3 - pi_d_a3_a1_proc_0
     + pi_d_a1_a4_proc_2 + pi_d_a1_a4_proc_0 - pi_d_a4_a1_proc_2
     - pi_d_a4_a1_proc_0 + pi_d_a1_a5_proc_2 - pi_d_a5_a1_proc_2
     + pi_d_a1_a6_proc_2 + pi_d_a1_a6_proc_3 + pi_d_a1_a6_proc_0
     - pi_d_a6_a1_proc_2 - pi_d_a6_a1_proc_3 - pi_d_a6_a1_proc_0
     + pi_d_a1_a7_proc_2 + pi_d_a1_a7_proc_3 + pi_d_a1_a7_proc_0
     - pi_d_a7_a1_proc_2 - pi_d_a7_a1_proc_3 - pi_d_a7_a1_proc_0
     + pi_d_a1_a8_proc_2 + pi_d_a1_a8_proc_0 - pi_d_a8_a1_proc_2
     - pi_d_a8_a1_proc_0 + pi_d_a1_a9_proc_2 + pi_d_a1_a9_proc_3
     + pi_d_a1_a9_proc_0 - pi_d_a9_a1_proc_2 - pi_d_a9_a1_proc_3
     - pi_d_a9_a1_proc_0 >= 0
 c9: 624 pi_p_a1_a0 + 624 pi_p_a1_a4 + 624 pi_d_a1_a0_proc_0
     + 624 pi_d_a1_a2_proc_0 + 624 pi_d_a1_a3_proc_0 + 624 pi_d_a1_a4_proc_0
     + 624 pi_d_a1_a6_proc_0 + 624 pi_d_a1_a7_proc_0 + 624 pi_d_a1_a8_proc_0
     + 624 pi_d_a1_a9_proc_0 + pi_y1_a1 + pi_y2_a1_proc_0 >= 0
 c10: 802 pi_p_a1_a0 + 802 pi_p_a1_a4 + 802 pi_d_a1_a0_proc_2
      + 802 pi_d_a1_a2_proc_2 + 802 pi_d_a1_a4_proc_2 + 802 pi_d_a1_a5_proc_2
      + 802 pi_d_a1_a6_proc_2 + 802 pi_d_a1_a7_proc_2 + 802 pi_d_a1_a8_proc_2
      + 802 pi_d_a1_a9_proc_2 + pi_y1_a1 + pi_y2_a1_proc_2 >= 0
 c11: 780 pi_p_a1_a0 + 780 pi_p_a1_a4 + 780 pi_d_a1_a0_proc_3
      + 780 pi_d_a1_a2_proc_3 + 780 pi_d_a1_a3_proc_3 + 780 pi_d_a1_a6_proc_3
      + 780 pi_d_a1_a7_proc_3 + 780 pi_d_a1_a9_proc_3 + pi_y1_a1
      + pi_y2_a1_proc_3 >= 0
 c12: pi_p_a2_a1 + pi_p_a2_a3 - pi_p_a4_a2 - pi_p_a5_a2 + pi_p_a2_a6
      - pi_p_a7_a2 - pi_d_a0_a2_proc_2 - pi_d_a0_a2_proc_3 - pi_d_a0_a2_proc_0
      + pi_d_a2_a0_proc_2 + pi_d_a2_a0_proc_3 + pi_d_a2_a0_proc_0
      - pi_d_a1_a2_proc_2 - pi_d_a1_a2_proc_3 - pi_d_a1_a2_proc_0
      + pi_d_a2_a1_proc_2 + pi_d_a2_a1_proc_3 + pi_d_a2_a1_proc_0
      + pi_d_a2_a3_proc_3 + pi_d_a2_a3_proc_0 - pi_d_a3_a2_proc_3
      - pi_d_a3_a2_proc_0 + pi_d_a2_a4_proc_2 + pi_d_a2_a4_proc_0
      - pi_d_a4_a2_proc_2 - pi_d_a4_a2_proc_0 + pi_d_a2_a5_proc_2
      - pi_d_a5_a2_proc_2 + pi_d_a2_a6_proc_2 + pi_d_a2_a6_proc_3
      + pi_d_a2_a6_proc_0 - pi_d_a6_a2_proc_2 - pi_d_a6_a2_proc_3
      - pi_d_a6_a2_proc_0 + pi_d_a2_a7_proc_2 + pi_d_a2_a7_proc_3
      + pi_d_a2_a7_proc_0 - pi_d_a7_a2_proc_2 - pi_d_a7_a2_proc_3
      - pi_d_a7_a2_proc_0 + pi_d_a2_a8_proc_2 + pi_d_a2_a8_proc_0
      - pi_d_a8_a2_proc_2 - pi_d_a8_a2_proc_0 + pi_d_a2_a9_proc_2
      + pi_d_a2_a9_proc_3 + pi_d_a2_a9_proc_0 - pi_d_a9_a2_proc_2
      - pi_d_a9_a2_proc_3 - pi_d_a9_a2_proc_0 >= 0
 c13: 896 pi_p_a2_a1 + 896 pi_p_a2_a3 + 896 pi_p_a2_a6 + 896 pi_d_a2_a0_proc_0
      + 896 pi_d_a2_a1_proc_0 + 896 pi_d_a2_a3_proc_0 + 896 pi_d_a2_a4_proc_0
      + 896 pi_d_a2_a6_proc_0 + 896 pi_d_a2_a7_proc_0 + 896 pi_d_a2_a8_proc_0
      + 896 pi_d_a2_a9_proc_0 + pi_y1_a2 + pi_y2_a2_proc_0 >= 0
 c14: 1112 pi_p_a2_a1 + 1112 pi_p_a2_a3 + 1112 pi_p_a2_a6
      + 1112 pi_d_a2_a0_proc_2 + 1112 pi_d_a2_a1_proc_2 + 1112 pi_d_a2_a4_proc_2
      + 1112 pi_d_a2_a5_proc_2 + 1112 pi_d_a2_a6_proc_2 + 1112 pi_d_a2_a7_proc_2
      + 1112 pi_d_a2_a8_proc_2 + 1112 pi_d_a2_a9_proc_2 + pi_y1_a2
      + pi_y2_a2_proc_2 >= 0
 c15: 944 pi_p_a2_a1 + 944 pi_p_a2_a3 + 944 pi_p_a2_a6 + 944 pi_d_a2_a0_proc_3
      + 944 pi_d_a2_a1_proc_3 + 944 pi_d_a2_a3_proc_3 + 944 pi_d_a2_a6_proc_3
      + 944 pi_d_a2_a7_proc_3 + 944 pi_d_a2_a9_proc_3 + pi_y1_a2
      + pi_y2_a2_proc_3 >= 0
 c16: - pi_p_a2_a3 + pi_p_a3_a6 + pi_p_a3_a8 - pi_p_a6_a3 - pi_p_a5_a3
      - pi_d_a0_a3_proc_3 - pi_d_a0_a3_proc_0 - pi_d_a0_a3_proc_1
      + pi_d_a3_a0_proc_3 + pi_d_a3_a0_proc_0 + pi_d_a3_a0_proc_1
      - pi_d_a1_a3_proc_3 - pi_d_a1_a3_proc_0 + pi_d_a3_a1_proc_3
      + pi_d_a3_a1_proc_0 - pi_d_a2_a3_proc_3 - pi_d_a2_a3_proc_0
      + pi_d_a3_a2_proc_3 + pi_d_a3_a2_proc_0 + pi_d_a3_a4_proc_0
      + pi_d_a3_a4_proc_1 - pi_d_a4_a3_proc_0 - pi_d_a4_a3_proc_1
      + pi_d_a3_a5_proc_1 - pi_d_a5_a3_proc_1 + pi_d_a3_a6_proc_3
      + pi_d_a3_a6_proc_0 + pi_d_a3_a6_proc_1 - pi_d_a6_a3_proc_3
      - pi_d_a6_a3_proc_0 - pi_d_a6_a3_proc_1 + pi_d_a3_a7_proc_3
      + pi_d_a3_a7_proc_0 + pi_d_a3_a7_proc_1 - pi_d_a7_a3_proc_3
      - pi_d_a7_a3_proc_0 - pi_d_a7_a3_proc_1 + pi_d_a3_a8_proc_0
      + pi_d_a3_a8_proc_1 - pi_d_a8_a3_proc_0 - pi_d_a8_a3_proc_1
      + pi_d_a3_a9_proc_3 + pi_d_a3_a9_proc_0 + pi_d_a3_a9_proc_1
      - pi_d_a9_a3_proc_3 - pi_d_a9_a3_proc_0 - pi_d_a9_a3_proc_1 >= 0
 c17: 1283 pi_p_a3_a6 + 1283 pi_p_a3_a8 + 1283 pi_d_a3_a0_proc_0
      + 1283 pi_d_a3_a1_proc_0 + 1283 pi_d_a3_a2_proc_0 + 1283 pi_d_a3_a4_proc_0
      + 1283 pi_d_a3_a6_proc_0 + 1283 pi_d_a3_a7_proc_0 + 1283 pi_d_a3_a8_proc_0
      + 1283 pi_d_a3_a9_proc_0 + pi_y1_a3 + pi_y2_a3_proc_0 >= 0
 c18: 896 pi_p_a3_a6 + 896 pi_p_a3_a8 + 896 pi_d_a3_a0_proc_1
      + 896 pi_d_a3_a4_proc_1 + 896 pi_d_a3_a5_proc_1 + 896 pi_d_a3_a6_proc_1
      + 896 pi_d_a3_a7_proc_1 + 896 pi_d_a3_a8_proc_1 + 896 pi_d_a3_a9_proc_1
      + pi_y1_a3 + pi_y2_a3_proc_1 >= 0
 c19: 827 pi_p_a3_a6 + 827 pi_p_a3_a8 + 827 pi_d_a3_a0_proc_3
      + 827 pi_d_a3_a1_proc_3 + 827 pi_d_a3_a2_proc_3 + 827 pi_d_a3_a6_proc_3
      + 827 pi_d_a3_a7_proc_3 + 827 pi_d_a3_a9_proc_3 + pi_y1_a3
      + pi_y2_a3_proc_3 >= 0
 c20: pi_p_a4_a2 + pi_p_a4_a9 + pi_p_a4_a1 - pi_p_a1_a4 - pi_d_a0_a4_proc_2
      - pi_d_a0_a4_proc_0 - pi_d_a0_a4_proc_1 + pi_d_a4_a0_proc_2
      + pi_d_a4_a0_proc_0 + pi_d_a4_a0_proc_1 - pi_d_a1_a4_proc_2
      - pi_d_a1_a4_proc_0 + pi_d_a4_a1_proc_2 + pi_d_a4_a1_proc_0
      - pi_d_a2_a4_proc_2 - pi_d_a2_a4_proc_0 + pi_d_a4_a2_proc_2
      + pi_d_a4_a2_proc_0 - pi_d_a3_a4_proc_0 - pi_d_a3_a4_proc_1
      + pi_d_a4_a3_proc_0 + pi_d_a4_a3_proc_1 + pi_d_a4_a5_proc_2
      + pi_d_a4_a5_proc_1 - pi_d_a5_a4_proc_2 - pi_d_a5_a4_proc_1
      + pi_d_a4_a6_proc_2 + pi_d_a4_a6_proc_0 + pi_d_a4_a6_proc_1
      - pi_d_a6_a4_proc_2 - pi_d_a6_a4_proc_0 - pi_d_a6_a4_proc_1
      + pi_d_a4_a7_proc_2 + pi_d_a4_a7_proc_0 + pi_d_a4_a7_proc_1
      - pi_d_a7_a4_proc_2 - pi_d_a7_a4_proc_0 - pi_d_a7_a4_proc_1
      + pi_d_a4_a8_proc_2 + pi_d_a4_a8_proc_0 + pi_d_a4_a8_proc_1
      - pi_d_a8_a4_proc_2 - pi_d_a8_a4_proc_0 - pi_d_a8_a4_proc_1
      + pi_d_a4_a9_proc_2 + pi_d_a4_a9_proc_0 + pi_d_a4_a9_proc_1
      - pi_d_a9_a4_proc_2 - pi_d_a9_a4_proc_0 - pi_d_a9_a4_proc_1 >= 0
 c21: 1057 pi_p_a4_a2 + 1057 pi_p_a4_a9 + 1057 pi_p_a4_a1
      + 1057 pi_d_a4_a0_proc_0 + 1057 pi_d_a4_a1_proc_0 + 1057 pi_d_a4_a2_proc_0
      + 1057 pi_d_a4_a3_proc_0 + 1057 pi_d_a4_a6_proc_0 + 1057 pi_d_a4_a7_proc_0
      + 1057 pi_d_a4_a8_proc_0 + 1057 pi_d_a4_a9_proc_0 + pi_y1_a4
      + pi_y2_a4_proc_0 >= 0
 c22: 1256 pi_p_a4_a2 + 1256 pi_p_a4_a9 + 1256 pi_p_a4_a1
      + 1256 pi_d_a4_a0_proc_1 + 1256 pi_d_a4_a3_proc_1 + 1256 pi_d_a4_a5_proc_1
      + 1256 pi_d_a4_a6_proc_1 + 1256 pi_d_a4_a7_proc_1 + 1256 pi_d_a4_a8_proc_1
      + 1256 pi_d_a4_a9_proc_1 + pi_y1_a4 + pi_y2_a4_proc_1 >= 0
 c23: 969 pi_p_a4_a2 + 969 pi_p_a4_a9 + 969 pi_p_a4_a1 + 969 pi_d_a4_a0_proc_2
      + 969 pi_d_a4_a1_proc_2 + 969 pi_d_a4_a2_proc_2 + 969 pi_d_a4_a5_proc_2
      + 969 pi_d_a4_a6_proc_2 + 969 pi_d_a4_a7_proc_2 + 969 pi_d_a4_a8_proc_2
      + 969 pi_d_a4_a9_proc_2 + pi_y1_a4 + pi_y2_a4_proc_2 >= 0
 c24: pi_p_a5_a2 - pi_p_a8_a5 - pi_p_a6_a5 + pi_p_a5_a8 + pi_p_a5_a3
      - pi_d_a0_a5_proc_2 - pi_d_a0_a5_proc_1 + pi_d_a5_a0_proc_2
      + pi_d_a5_a0_proc_1 - pi_d_a1_a5_proc_2 + pi_d_a5_a1_proc_2
      - pi_d_a2_a5_proc_2 + pi_d_a5_a2_proc_2 - pi_d_a3_a5_proc_1
      + pi_d_a5_a3_proc_1 - pi_d_a4_a5_proc_2 - pi_d_a4_a5_proc_1
      + pi_d_a5_a4_proc_2 + pi_d_a5_a4_proc_1 + pi_d_a5_a6_proc_2
      + pi_d_a5_a6_proc_1 - pi_d_a6_a5_proc_2 - pi_d_a6_a5_proc_1
      + pi_d_a5_a7_proc_2 + pi_d_a5_a7_proc_1 - pi_d_a7_a5_proc_2
      - pi_d_a7_a5_proc_1 + pi_d_a5_a8_proc_2 + pi_d_a5_a8_proc_1
      - pi_d_a8_a5_proc_2 - pi_d_a8_a5_proc_1 + pi_d_a5_a9_proc_2
      + pi_d_a5_a9_proc_1 - pi_d_a9_a5_proc_2 - pi_d_a9_a5_proc_1 >= 0
 c25: 538 pi_p_a5_a2 + 538 pi_p_a5_a8 + 538 pi_p_a5_a3 + 538 pi_d_a5_a0_proc_1
      + 538 pi_d_a5_a3_proc_1 + 538 pi_d_a5_a4_proc_1 + 538 pi_d_a5_a6_proc_1
      + 538 pi_d_a5_a7_proc_1 + 538 pi_d_a5_a8_proc_1 + 538 pi_d_a5_a9_proc_1
      + pi_y1_a5 + pi_y2_a5_proc_1 >= 0
 c26: 963 pi_p_a5_a2 + 963 pi_p_a5_a8 + 963 pi_p_a5_a3 + 963 pi_d_a5_a0_proc_2
      + 963 pi_d_a5_a1_proc_2 + 963 pi_d_a5_a2_proc_2 + 963 pi_d_a5_a4_proc_2
      + 963 pi_d_a5_a6_proc_2 + 963 pi_d_a5_a7_proc_2 + 963 pi_d_a5_a8_proc_2
      + 963 pi_d_a5_a9_proc_2 + pi_y1_a5 + pi_y2_a5_proc_2 >= 0
 c27: - pi_p_a3_a6 + pi_p_a6_a7 + pi_p_a6_a3 - pi_p_a2_a6 + pi_p_a6_a5
      - pi_d_a0_a6_proc_2 - pi_d_a0_a6_proc_3 - pi_d_a0_a6_proc_0
      - pi_d_a0_a6_proc_1 + pi_d_a6_a0_proc_2 + pi_d_a6_a0_proc_3
      + pi_d_a6_a0_proc_0 + pi_d_a6_a0_proc_1 - pi_d_a1_a6_proc_2
      - pi_d_a1_a6_proc_3 - pi_d_a1_a6_proc_0 + pi_d_a6_a1_proc_2
      + pi_d_a6_a1_proc_3 + pi_d_a6_a1_proc_0 - pi_d_a2_a6_proc_2
      - pi_d_a2_a6_proc_3 - pi_d_a2_a6_proc_0 + pi_d_a6_a2_proc_2
      + pi_d_a6_a2_proc_3 + pi_d_a6_a2_proc_0 - pi_d_a3_a6_proc_3
      - pi_d_a3_a6_proc_0 - pi_d_a3_a6_proc_1 + pi_d_a6_a3_proc_3
      + pi_d_a6_a3_proc_0 + pi_d_a6_a3_proc_1 - pi_d_a4_a6_proc_2
      - pi_d_a4_a6_proc_0 - pi_d_a4_a6_proc_1 + pi_d_a6_a4_proc_2
      + pi_d_a6_a4_proc_0 + pi_d_a6_a4_proc_1 - pi_d_a5_a6_proc_2
      - pi_d_a5_a6_proc_1 + pi_d_a6_a5_proc_2 + pi_d_a6_a5_proc_1
      + pi_d_a6_a7_proc_2 + pi_d_a6_a7_proc_3 + pi_d_a6_a7_proc_0
      + pi_d_a6_a7_proc_1 - pi_d_a7_a6_proc_2 - pi_d_a7_a6_proc_3
      - pi_d_a7_a6_proc_0 - pi_d_a7_a6_proc_1 + pi_d_a6_a8_proc_2
      + pi_d_a6_a8_proc_0 + pi_d_a6_a8_proc_1 - pi_d_a8_a6_proc_2
      - pi_d_a8_a6_proc_0 - pi_d_a8_a6_proc_1 + pi_d_a6_a9_proc_2
      + pi_d_a6_a9_proc_3 + pi_d_a6_a9_proc_0 + pi_d_a6_a9_proc_1
      - pi_d_a9_a6_proc_2 - pi_d_a9_a6_proc_3 - pi_d_a9_a6_proc_0
      - pi_d_a9_a6_proc_1 >= 0
 c28: 1037 pi_p_a6_a7 + 1037 pi_p_a6_a3 + 1037 pi_p_a6_a5
      + 1037 pi_d_a6_a0_proc_0 + 1037 pi_d_a6_a1_proc_0 + 1037 pi_d_a6_a2_proc_0
      + 1037 pi_d_a6_a3_proc_0 + 1037 pi_d_a6_a4_proc_0 + 1037 pi_d_a6_a7_proc_0
      + 1037 pi_d_a6_a8_proc_0 + 1037 pi_d_a6_a9_proc_0 + pi_y1_a6
      + pi_y2_a6_proc_0 >= 0
 c29: 946 pi_p_a6_a7 + 946 pi_p_a6_a3 + 946 pi_p_a6_a5 + 946 pi_d_a6_a0_proc_1
      + 946 pi_d_a6_a3_proc_1 + 946 pi_d_a6_a4_proc_1 + 946 pi_d_a6_a5_proc_1
      + 946 pi_d_a6_a7_proc_1 + 946 pi_d_a6_a8_proc_1 + 946 pi_d_a6_a9_proc_1
      + pi_y1_a6 + pi_y2_a6_proc_1 >= 0
 c30: 822 pi_p_a6_a7 + 822 pi_p_a6_a3 + 822 pi_p_a6_a5 + 822 pi_d_a6_a0_proc_2
      + 822 pi_d_a6_a1_proc_2 + 822 pi_d_a6_a2_proc_2 + 822 pi_d_a6_a4_proc_2
      + 822 pi_d_a6_a5_proc_2 + 822 pi_d_a6_a7_proc_2 + 822 pi_d_a6_a8_proc_2
      + 822 pi_d_a6_a9_proc_2 + pi_y1_a6 + pi_y2_a6_proc_2 >= 0
 c31: 1227 pi_p_a6_a7 + 1227 pi_p_a6_a3 + 1227 pi_p_a6_a5
      + 1227 pi_d_a6_a0_proc_3 + 1227 pi_d_a6_a1_proc_3 + 1227 pi_d_a6_a2_proc_3
      + 1227 pi_d_a6_a3_proc_3 + 1227 pi_d_a6_a7_proc_3 + 1227 pi_d_a6_a9_proc_3
      + pi_y1_a6 + pi_y2_a6_proc_3 >= 0
 c32: - pi_p_a6_a7 + pi_p_a7_a2 - pi_d_a0_a7_proc_2 - pi_d_a0_a7_proc_3
      - pi_d_a0_a7_proc_0 - pi_d_a0_a7_proc_1 + pi_d_a7_a0_proc_2
      + pi_d_a7_a0_proc_3 + pi_d_a7_a0_proc_0 + pi_d_a7_a0_proc_1
      - pi_d_a1_a7_proc_2 - pi_d_a1_a7_proc_3 - pi_d_a1_a7_proc_0
      + pi_d_a7_a1_proc_2 + pi_d_a7_a1_proc_3 + pi_d_a7_a1_proc_0
      - pi_d_a2_a7_proc_2 - pi_d_a2_a7_proc_3 - pi_d_a2_a7_proc_0
      + pi_d_a7_a2_proc_2 + pi_d_a7_a2_proc_3 + pi_d_a7_a2_proc_0
      - pi_d_a3_a7_proc_3 - pi_d_a3_a7_proc_0 - pi_d_a3_a7_proc_1
      + pi_d_a7_a3_proc_3 + pi_d_a7_a3_proc_0 + pi_d_a7_a3_proc_1
      - pi_d_a4_a7_proc_2 - pi_d_a4_a7_proc_0 - pi_d_a4_a7_proc_1
      + pi_d_a7_a4_proc_2 + pi_d_a7_a4_proc_0 + pi_d_a7_a4_proc_1
      - pi_d_a5_a7_proc_2 - pi_d_a5_a7_proc_1 + pi_d_a7_a5_proc_2
      + pi_d_a7_a5_proc_1 - pi_d_a6_a7_proc_2 - pi_d_a6_a7_proc_3
      - pi_d_a6_a7_proc_0 - pi_d_a6_a7_proc_1 + pi_d_a7_a6_proc_2
      + pi_d_a7_a6_proc_3 + pi_d_a7_a6_proc_0 + pi_d_a7_a6_proc_1
      + pi_d_a7_a8_proc_2 + pi_d_a7_a8_proc_0 + pi_d_a7_a8_proc_1
      - pi_d_a8_a7_proc_2 - pi_d_a8_a7_proc_0 - pi_d_a8_a7_proc_1
      + pi_d_a7_a9_proc_2 + pi_d_a7_a9_proc_3 + pi_d_a7_a9_proc_0
      + pi_d_a7_a9_proc_1 - pi_d_a9_a7_proc_2 - pi_d_a9_a7_proc_3
      - pi_d_a9_a7_proc_0 - pi_d_a9_a7_proc_1 >= 0
 c33: 1242 pi_p_a7_a2 + 1242 pi_d_a7_a0_proc_0 + 1242 pi_d_a7_a1_proc_0
      + 1242 pi_d_a7_a2_proc_0 + 1242 pi_d_a7_a3_proc_0 + 1242 pi_d_a7_a4_proc_0
      + 1242 pi_d_a7_a6_proc_0 + 1242 pi_d_a7_a8_proc_0 + 1242 pi_d_a7_a9_proc_0
      + pi_y1_a7 + pi_y2_a7_proc_0 >= 0
 c34: 1282 pi_p_a7_a2 + 1282 pi_d_a7_a0_proc_1 + 1282 pi_d_a7_a3_proc_1
      + 1282 pi_d_a7_a4_proc_1 + 1282 pi_d_a7_a5_proc_1 + 1282 pi_d_a7_a6_proc_1
      + 1282 pi_d_a7_a8_proc_1 + 1282 pi_d_a7_a9_proc_1 + pi_y1_a7
      + pi_y2_a7_proc_1 >= 0
 c35: 852 pi_p_a7_a2 + 852 pi_d_a7_a0_proc_2 + 852 pi_d_a7_a1_proc_2
      + 852 pi_d_a7_a2_proc_2 + 852 pi_d_a7_a4_proc_2 + 852 pi_d_a7_a5_proc_2
      + 852 pi_d_a7_a6_proc_2 + 852 pi_d_a7_a8_proc_2 + 852 pi_d_a7_a9_proc_2
      + pi_y1_a7 + pi_y2_a7_proc_2 >= 0
 c36: 806 pi_p_a7_a2 + 806 pi_d_a7_a0_proc_3 + 806 pi_d_a7_a1_proc_3
      + 806 pi_d_a7_a2_proc_3 + 806 pi_d_a7_a3_proc_3 + 806 pi_d_a7_a6_proc_3
      + 806 pi_d_a7_a9_proc_3 + pi_y1_a7 + pi_y2_a7_proc_3 >= 0
 c37: - pi_p_a3_a8 - pi_p_a9_a8 + pi_p_a8_a5 - pi_p_a5_a8 - pi_d_a0_a8_proc_2
      - pi_d_a0_a8_proc_0 - pi_d_a0_a8_proc_1 + pi_d_a8_a0_proc_2
      + pi_d_a8_a0_proc_0 + pi_d_a8_a0_proc_1 - pi_d_a1_a8_proc_2
      - pi_d_a1_a8_proc_0 + pi_d_a8_a1_proc_2 + pi_d_a8_a1_proc_0
      - pi_d_a2_a8_proc_2 - pi_d_a2_a8_proc_0 + pi_d_a8_a2_proc_2
      + pi_d_a8_a2_proc_0 - pi_d_a3_a8_proc_0 - pi_d_a3_a8_proc_1
      + pi_d_a8_a3_proc_0 + pi_d_a8_a3_proc_1 - pi_d_a4_a8_proc_2
      - pi_d_a4_a8_proc_0 - pi_d_a4_a8_proc_1 + pi_d_a8_a4_proc_2
      + pi_d_a8_a4_proc_0 + pi_d_a8_a4_proc_1 - pi_d_a5_a8_proc_2
      - pi_d_a5_a8_proc_1 + pi_d_a8_a5_proc_2 + pi_d_a8_a5_proc_1
      - pi_d_a6_a8_proc_2 - pi_d_a6_a8_proc_0 - pi_d_a6_a8_proc_1
      + pi_d_a8_a6_proc_2 + pi_d_a8_a6_proc_0 + pi_d_a8_a6_proc_1
      - pi_d_a7_a8_proc_2 - pi_d_a7_a8_proc_0 - pi_d_a7_a8_proc_1
      + pi_d_a8_a7_proc_2 + pi_d_a8_a7_proc_0 + pi_d_a8_a7_proc_1
      + pi_d_a8_a9_proc_2 + pi_d_a8_a9_proc_0 + pi_d_a8_a9_proc_1
      - pi_d_a9_a8_proc_2 - pi_d_a9_a8_proc_0 - pi_d_a9_a8_proc_1 >= 0
 c38: 1150 pi_p_a8_a5 + 1150 pi_d_a8_a0_proc_0 + 1150 pi_d_a8_a1_proc_0
      + 1150 pi_d_a8_a2_proc_0 + 1150 pi_d_a8_a3_proc_0 + 1150 pi_d_a8_a4_proc_0
      + 1150 pi_d_a8_a6_proc_0 + 1150 pi_d_a8_a7_proc_0 + 1150 pi_d_a8_a9_proc_0
      + pi_y1_a8 + pi_y2_a8_proc_0 >= 0
 c39: 923 pi_p_a8_a5 + 923 pi_d_a8_a0_proc_1 + 923 pi_d_a8_a3_proc_1
      + 923 pi_d_a8_a4_proc_1 + 923 pi_d_a8_a5_proc_1 + 923 pi_d_a8_a6_proc_1
      + 923 pi_d_a8_a7_proc_1 + 923 pi_d_a8_a9_proc_1 + pi_y1_a8
      + pi_y2_a8_proc_1 >= 0
 c40: 799 pi_p_a8_a5 + 799 pi_d_a8_a0_proc_2 + 799 pi_d_a8_a1_proc_2
      + 799 pi_d_a8_a2_proc_2 + 799 pi_d_a8_a4_proc_2 + 799 pi_d_a8_a5_proc_2
      + 799 pi_d_a8_a6_proc_2 + 799 pi_d_a8_a7_proc_2 + 799 pi_d_a8_a9_proc_2
      + pi_y1_a8 + pi_y2_a8_proc_2 >= 0
 c41: - pi_p_a0_a9 + pi_p_a9_a8 - pi_p_a4_a9 - pi_d_a0_a9_proc_2
      - pi_d_a0_a9_proc_3 - pi_d_a0_a9_proc_0 - pi_d_a0_a9_proc_1
      + pi_d_a9_a0_proc_2 + pi_d_a9_a0_proc_3 + pi_d_a9_a0_proc_0
      + pi_d_a9_a0_proc_1 - pi_d_a1_a9_proc_2 - pi_d_a1_a9_proc_3
      - pi_d_a1_a9_proc_0 + pi_d_a9_a1_proc_2 + pi_d_a9_a1_proc_3
      + pi_d_a9_a1_proc_0 - pi_d_a2_a9_proc_2 - pi_d_a2_a9_proc_3
      - pi_d_a2_a9_proc_0 + pi_d_a9_a2_proc_2 + pi_d_a9_a2_proc_3
      + pi_d_a9_a2_proc_0 - pi_d_a3_a9_proc_3 - pi_d_a3_a9_proc_0
      - pi_d_a3_a9_proc_1 + pi_d_a9_a3_proc_3 + pi_d_a9_a3_proc_0
      + pi_d_a9_a3_proc_1 - pi_d_a4_a9_proc_2 - pi_d_a4_a9_proc_0
      - pi_d_a4_a9_proc_1 + pi_d_a9_a4_proc_2 + pi_d_a9_a4_proc_0
      + pi_d_a9_a4_proc_1 - pi_d_a5_a9_proc_2 - pi_d_a5_a9_proc_1
      + pi_d_a9_a5_proc_2 + pi_d_a9_a5_proc_1 - pi_d_a6_a9_proc_2
      - pi_d_a6_a9_proc_3 - pi_d_a6_a9_proc_0 - pi_d_a6_a9_proc_1
      + pi_d_a9_a6_proc_2 + pi_d_a9_a6_proc_3 + pi_d_a9_a6_proc_0
      + pi_d_a9_a6_proc_1 - pi_d_a7_a9_proc_2 - pi_d_a7_a9_proc_3
      - pi_d_a7_a9_proc_0 - pi_d_a7_a9_proc_1 + pi_d_a9_a7_proc_2
      + pi_d_a9_a7_proc_3 + pi_d_a9_a7_proc_0 + pi_d_a9_a7_proc_1
      - pi_d_a8_a9_proc_2 - pi_d_a8_a9_proc_0 - pi_d_a8_a9_proc_1
      + pi_d_a9_a8_proc_2 + pi_d_a9_a8_proc_0 + pi_d_a9_a8_proc_1 >= 0
 c42: 1295 pi_p_a9_a8 + 1295 pi_d_a9_a0_proc_0 + 1295 pi_d_a9_a1_proc_0
      + 1295 pi_d_a9_a2_proc_0 + 1295 pi_d_a9_a3_proc_0 + 1295 pi_d_a9_a4_proc_0
      + 1295 pi_d_a9_a6_proc_0 + 1295 pi_d_a9_a7_proc_0 + 1295 pi_d_a9_a8_proc_0
      + pi_y1_a9 + pi_y2_a9_proc_0 >= 0
 c43: 941 pi_p_a9_a8 + 941 pi_d_a9_a0_proc_1 + 941 pi_d_a9_a3_proc_1
      + 941 pi_d_a9_a4_proc_1 + 941 pi_d_a9_a5_proc_1 + 941 pi_d_a9_a6_proc_1
      + 941 pi_d_a9_a7_proc_1 + 941 pi_d_a9_a8_proc_1 + pi_y1_a9
      + pi_y2_a9_proc_1 >= 0
 c44: 1199 pi_p_a9_a8 + 1199 pi_d_a9_a0_proc_2 + 1199 pi_d_a9_a1_proc_2
      + 1199 pi_d_a9_a2_proc_2 + 1199 pi_d_a9_a4_proc_2 + 1199 pi_d_a9_a5_proc_2
      + 1199 pi_d_a9_a6_proc_2 + 1199 pi_d_a9_a7_proc_2 + 1199 pi_d_a9_a8_proc_2
      + pi_y1_a9 + pi_y2_a9_proc_2 >= 0
 c45: 1107 pi_p_a9_a8 + 1107 pi_d_a9_a0_proc_3 + 1107 pi_d_a9_a1_proc_3
      + 1107 pi_d_a9_a2_proc_3 + 1107 pi_d_a9_a3_proc_3 + 1107 pi_d_a9_a6_proc_3
      + 1107 pi_d_a9_a7_proc_3 + pi_y1_a9 + pi_y2_a9_proc_3 >= 0

Bounds
       pi_y1_a0 Free
       pi_y1_a1 Free
       pi_y1_a2 Free
       pi_y1_a3 Free
       pi_y1_a4 Free
       pi_y1_a5 Free
       pi_y1_a6 Free
       pi_y1_a7 Free
       pi_y1_a8 Free
       pi_y1_a9 Free
End
