benchmark/results/graph__10-1000-0.10-04_19/graph__10-1000-0.10-04_19_QuintonOs_Benders_aux.txt
solution for: Quinton Bounded Benders_auxiliary_sub
objective: 0.0174622
status: OPTIMAL_SOLUTION(2)
pi_p_a2_a1=0.000
pi_p_a4_a2=0.000
pi_p_a1_a4=0.000
pi_y1_a1=-0.242
pi_y1_a2=-0.348
pi_y1_a4=-0.410
pi_y2_a4_proc_2=0.034
